StudentsNr = 10;
InstructorsNr = 100;
DaysNr = 2;
SlotsPerDay = 20;
AvailabilitySlotsLenght = 10;
RoomNr = 1;
ProgrammNr = 1;
DegreeNr = 1;
RolesNr = 0;
CoursesNr = 2;
InstructorsProgramm = [{1}, {1}, {1}, {1}, {1}, {1}, {1}, {1}, {1}, {1}, {1}, {1}, {1}, {1}, {1}, {1}, {1}, {1}, {1}, {1}, {1}, {1}, {1}, {1}, {1}, {1}, {1}, {1}, {1}, {1}, {1}, {1}, {1}, {1}, {1}, {1}, {1}, {1}, {1}, {1}, {1}, {1}, {1}, {1}, {1}, {1}, {1}, {1}, {1}, {1}, {1}, {1}, {1}, {1}, {1}, {1}, {1}, {1}, {1}, {1}, {1}, {1}, {1}, {1}, {1}, {1}, {1}, {1}, {1}, {1}, {1}, {1}, {1}, {1}, {1}, {1}, {1}, {1}, {1}, {1}, {1}, {1}, {1}, {1}, {1}, {1}, {1}, {1}, {1}, {1}, {1}, {1}, {1}, {1}, {1}, {1}, {1}, {1}, {1}, {1}];
InstructorRolesPerProgramm = array2d(1..ProgrammNr,{},[]);
InstructorsAvailability = [|1, 1, 1, 1, |0, 1, 1, 1, |0, 1, 1, 1, |0, 0, 0, 0, |1, 0, 0, 1, |0, 0, 0, 0, |0, 1, 1, 1, |1, 1, 0, 1, |0, 1, 1, 1, |0, 0, 0, 0, |1, 1, 1, 1, |0, 1, 1, 0, |0, 0, 1, 1, |0, 0, 1, 0, |1, 1, 0, 1, |1, 1, 0, 1, |1, 1, 1, 0, |1, 1, 1, 1, |0, 0, 0, 0, |0, 0, 1, 1, |0, 1, 1, 1, |1, 1, 1, 1, |0, 0, 0, 0, |0, 1, 1, 1, |0, 1, 1, 0, |1, 1, 1, 0, |1, 1, 1, 1, |1, 1, 1, 1, |1, 1, 1, 1, |0, 1, 1, 1, |1, 1, 1, 1, |0, 0, 1, 1, |1, 1, 1, 1, |0, 1, 1, 1, |0, 1, 1, 1, |0, 0, 0, 1, |1, 1, 1, 1, |1, 0, 0, 0, |0, 1, 0, 1, |1, 1, 1, 1, |1, 1, 1, 1, |1, 1, 1, 1, |1, 1, 1, 0, |0, 0, 0, 1, |1, 1, 1, 0, |0, 0, 0, 0, |0, 1, 1, 1, |0, 0, 1, 1, |1, 0, 1, 1, |0, 0, 1, 1, |0, 0, 1, 1, |1, 0, 0, 1, |1, 1, 1, 1, |1, 1, 1, 1, |0, 0, 0, 1, |0, 0, 1, 1, |1, 1, 1, 1, |0, 1, 0, 1, |0, 1, 1, 1, |0, 1, 1, 0, |1, 1, 1, 1, |0, 0, 1, 1, |1, 1, 1, 1, |1, 1, 1, 0, |0, 1, 1, 1, |1, 1, 0, 0, |1, 1, 1, 1, |0, 1, 1, 1, |1, 1, 1, 1, |0, 1, 1, 1, |0, 1, 1, 1, |0, 1, 1, 1, |0, 1, 1, 1, |0, 1, 1, 1, |0, 0, 1, 1, |0, 1, 1, 0, |1, 1, 1, 0, |0, 0, 1, 1, |1, 1, 1, 1, |1, 1, 1, 1, |1, 1, 1, 1, |1, 0, 1, 1, |0, 0, 1, 1, |0, 0, 0, 1, |1, 1, 1, 1, |0, 1, 1, 0, |0, 1, 1, 1, |0, 0, 0, 1, |0, 1, 1, 1, |0, 1, 1, 1, |0, 1, 1, 1, |1, 1, 1, 1, |1, 1, 1, 1, |1, 1, 1, 1, |1, 1, 1, 1, |0, 1, 1, 1, |1, 1, 1, 1, |1, 1, 1, 1, |1, 1, 1, 1, |1, 1, 1, 1|];
StudentsProgramm = [1, 1, 1, 1, 1, 1, 1, 1, 1, 1];
StudentsDegree = [1, 1, 1, 1, 1, 1, 1, 1, 1, 1];
StudentsSupervisorId = [20, 14, 82, 34, 19, 93, 23, 98, 86, 75];
StudentsCourseIds = [{1, 2}, {1, 2}, {1, 2}, {1, 2}, {1, 2}, {1, 2}, {1, 2}, {1, 2}, {1, 2}, {1, 2}];
StudentsAvailability = [|1, 1, 0, 1, |1, 1, 1, 1, |1, 1, 1, 1, |0, 0, 1, 1, |1, 1, 1, 1, |0, 1, 1, 1, |1, 1, 1, 1, |0, 0, 0, 1, |0, 1, 1, 1, |1, 1, 1, 1|];
TheoryticalMinCard = [2, 3, 2, 3, 2, 2, 2, 2, 2, 2];
CoursesInstructorIds = [{2, 3, 5, 7, 8, 10, 17, 18, 20, 21, 22, 23, 24, 25, 26, 30, 31, 32, 36, 37, 39, 42, 46, 48, 50, 52, 54, 55, 56, 59, 61, 63, 64, 66, 67, 68, 69, 70, 71, 73, 75, 76, 77, 78, 79, 82, 84, 85, 87, 89, 90, 91, 92, 93, 95, 96, 99, 100}, {1, 2, 3, 6, 8, 10, 11, 12, 13, 15, 16, 17, 19, 22, 24, 25, 27, 29, 30, 31, 32, 36, 37, 39, 40, 41, 42, 45, 49, 50, 52, 53, 55, 56, 58, 59, 60, 61, 62, 63, 64, 66, 67, 68, 69, 70, 71, 72, 73, 76, 77, 80, 82, 83, 86, 87, 88, 90, 92, 93, 95, 97, 98}];
RolesDemands = [];
RolesContinuity = [];
ExamLen = [1, 1, 1, 1, 1, 1, 1, 1, 1, 1];
LunchTsMinLen = 1;
LunchStarts = [10..12, 30..35];
SupervisorAvailable = 5;
OptimalLunchLenght = [2, 1];
OptimalStartTs = [2, 0];
OptimalFinishTs = [1, 20];
MinimizeRooms = 100;
RolesSoftContinuity = array2d(1..2,{},[]);
SameDegreeInRoom = 20;
Mergeability = 2;
